%nosave
# opt freq amber=hardfirst geom=connectivity

Amber Oprot

1 1
 N-N*--0.479467     1.70227500   -1.56788600   -0.00010900
 C-CK-0.405342      2.68971900   -0.58470000    0.00003000
 H-H5-0.110826      3.73870000   -0.84272000    0.00001500
 N-NB--0.541346     2.21035800    0.62507300    0.00017400
 C-CB-0.028955      0.84337500    0.44176500    0.00012800
 C-C-0.524363      -0.20312700    1.33487900   -0.00002300
 O-OH--0.472812    -0.15715200    2.64778600    0.00007400
 N-NA--0.630199    -1.46122400    0.79960100   -0.00001600
 H-H-0.448393      -2.23400500    1.45776900   -0.00146800
 C-CA-0.859901     -1.69998800   -0.56855400    0.00020500
 N-N2--0.898188    -2.97716800   -0.97713300   -0.00002700
 H-H-0.430950      -3.76585600   -0.35091800    0.00117100
 H-H-0.447820      -3.15285600   -1.97096000   -0.00033200
 N-NC--0.643321    -0.72091100   -1.45480500   -0.00004800
 C-CB-0.558826      0.50212200   -0.93054400   -0.00014400
 H-H-0.388591       1.84396900   -2.56994400   -0.00009900
 H-HO-0.461366      0.76134300    2.96346900   -0.00087900
 O-O--0.585304              3.11697216    8.53134657   -0.00000008
 C-C-0.745557              2.56098105    7.45306380    0.00600092
 C-CB--0.008473              3.08575463    6.11404951    0.01067292
 C-CK-0.334450              4.29482137    4.36301899    0.00386192
 C-CB-0.524318              2.19292794    5.04502845    0.00305292
 C-CA-0.886367              0.34534002    6.27603836    0.00102592
 N-NB--0.544921              4.39055073    5.66390699    0.01030192
 N-N*--0.497666              2.98092140    3.92579988   -0.00025108
 N-NC--0.748075              0.83710535    5.06346138    0.01088592
 N-N2--0.822546             -1.01634166    6.45641335   -0.06132708
 N-NA--0.842138              1.12219076    7.40444896    0.00092392
 H-H5-0.065101              5.12274125    3.67014522    0.00212092
 H-H-0.357169              2.64830049    2.97379354   -0.00749808
 H-H-0.360397             -1.54615392    5.61221774    0.09847292
 H-H-0.345547             -1.40744607    7.28565480    0.35953892
 H-H-0.430217              0.68822460    8.31602458   -0.06837708

 1 2 1.0 15 1.5 16 1.0
 2 3 1.0 4 2.0
 3
 4 5 1.5
 5 6 2.0 15 1.5
 6 7 1.5 8 1.5
 7 17 1.0
 8 9 1.0 10 1.0
 9
 10 11 1.5 14 2.0
 11 12 1.0 13 1.0
 12
 13
 14 15 1.5
 15
 16
 17
 18 19 2.0
 19 20 1.5 28 1.0
 20 24 1.5 22 1.5
 21 24 2.0 25 1.0 29 1.0
 22 25 1.5 26 1.5
 23 26 2.0 27 1.5 28 1.5
 24
 25 30 1.0
 26
 27 31 1.0 32 1.0
 28 33 1.0
 29
 30
 31
 32
 33

 HrmBnd1 CB C OH 80.0 128.4
 HrmBnd1 OH C NA 80.0 115.0




